
Gurobi 11.0.2 (linux64) logging started Tue 03 Dec 2024 09:02:40 AM CET

Set parameter LogFile to value "./res/knapPI_11_50_1000/knapPI_11_50_1000_3/grb_dom.log"
Set parameter Presolve to value 0
Set parameter Aggregate to value 0
Set parameter Heuristics to value 0
Set parameter LPWarmStart to value 0
Set parameter NLPHeur to value 0
Set parameter PreDepRow to value 0
Set parameter PreDual to value 0
Set parameter RINS to value 0
Set parameter Symmetry to value 0
Set parameter NodeLimit to value 1
Set parameter Threads to value 1

Gurobi 11.0.2 (linux64) logging started Tue 03 Dec 2024 09:02:46 AM CET

Set parameter LogFile to value "./res/knapPI_11_50_1000/knapPI_11_50_1000_3/grb_dom.log"
Set parameter NLPHeur to value 0
Set parameter LPWarmStart to value 0
Set parameter PreDepRow to value 0
Set parameter Symmetry to value 0
Set parameter Presolve to value 0
Gurobi Optimizer version 11.0.2 build v11.0.2rc0 (linux64 - "Pop!_OS 20.04 LTS")

CPU model: Intel(R) Core(TM) i7-8650U CPU @ 1.90GHz, instruction set [SSE2|AVX|AVX2]
Thread count: 4 physical cores, 4 logical processors, using up to 1 threads

Optimize a model with 27210 rows, 50 columns and 1106735 nonzeros
Model fingerprint: 0x24f2769e
Variable types: 0 continuous, 50 integer (50 binary)
Coefficient statistics:
  Matrix range     [1e+00, 1e+03]
  Objective range  [9e+01, 1e+03]
  Bounds range     [0e+00, 0e+00]
  RHS range        [1e+03, 1e+03]
Variable types: 0 continuous, 50 integer (50 binary)

Root relaxation: objective 1.881818e+03, 8 iterations, 0.40 seconds (0.04 work units)

    Nodes    |    Current Node    |     Objective Bounds      |     Work
 Expl Unexpl |  Obj  Depth IntInf | Incumbent    BestBd   Gap | It/Node Time

     0     0 1881.81818    0    1          - 1881.81818      -     -    1s
     0     0 1881.81818    0    3          - 1881.81818      -     -    1s
     0     0 1881.81818    0    5          - 1881.81818      -     -    2s
     0     0 1881.81818    0    3          - 1881.81818      -     -    3s
     0     0 1881.81818    0    1          - 1881.81818      -     -    3s
     0     0 1881.81818    0    1          - 1881.81818      -     -    4s
     0     0 1881.81818    0    2          - 1881.81818      -     -    4s
     0     0 1881.81818    0    3          - 1881.81818      -     -    4s
     0     0 1881.81818    0    1          - 1881.81818      -     -    4s
     0     0 1881.81818    0    4          - 1881.81818      -     -    5s
     0     0 1881.81818    0    3          - 1881.81818      -     -    5s
     0     0 1881.81818    0    2          - 1881.81818      -     -    6s
     0     0 1881.81818    0    2          - 1881.81818      -     -    6s
     0     2 1881.81818    0    2          - 1881.81818      -     -    6s

Cutting planes:
  Cover: 3

Explored 1 nodes (39 simplex iterations) in 6.71 seconds (2.95 work units)
Thread count was 1 (of 4 available processors)

Solution count 0

Node limit reached
Best objective -, best bound 1.881000000000e+03, gap -

User-callback calls 1136, time in user-callback 0.01 sec
opt = false
obj = 1881.8182
nb_dom_cuts = 27209
solved_time = 6.714
opt_val = 1800.0
